(set-info :source |printed by MathSAT|)
(declare-fun |.x{1}| () Int)
(declare-fun |.x{261}| () Int)
(declare-fun |.x{22}| () (Array Int Int))
(declare-fun |.x{262}| () (Array Int Int))
(declare-fun |.x{3}| () (Array Int Int))
(declare-fun |.x{263}| () (Array Int Int))
(declare-fun |.x{24}| () Int)
(declare-fun |.x{264}| () Int)
(declare-fun |.x{5}| () Int)
(declare-fun |.x{265}| () Int)
(declare-fun |.x{6}| () (Array Int Int))
(declare-fun |.x{266}| () (Array Int Int))
(declare-fun |.x{7}| () (Array Int Int))
(declare-fun |.x{267}| () (Array Int Int))
(declare-fun |.x{28}| () Int)
(declare-fun |.x{268}| () Int)
(declare-fun |.x{9}| () Int)
(declare-fun |.x{269}| () Int)
(declare-fun |.x{10}| () Int)
(declare-fun |.x{270}| () Int)
(declare-fun |.x{11}| () Int)
(declare-fun |.x{271}| () Int)
(declare-fun |.x{12}| () Int)
(declare-fun |.x{272}| () Int)
(declare-fun |.x{13}| () Int)
(declare-fun |.x{273}| () Int)
(declare-fun |.x{14}| () Int)
(declare-fun |.x{274}| () Int)
(declare-fun |.x{15}| () Int)
(declare-fun |.x{275}| () Int)
(declare-fun |.x{16}| () Int)
(declare-fun |.x{276}| () Int)
(declare-fun |.x{17}| () Int)
(declare-fun |.x{277}| () Int)
(declare-fun |.x{18}| () Int)
(declare-fun |.x{278}| () Int)
(declare-fun |.x{19}| () Int)
(declare-fun |.x{279}| () Int)
(declare-fun |.x{20}| () Bool)
(declare-fun |.x{240}| () Bool)
(declare-fun |.loc{3}| () Bool)
(declare-fun |.loc{5}| () Bool)
(declare-fun |.loc{4}| () Bool)
(declare-fun |.loc{6}| () Bool)
(declare-fun |.x{79}| () (Array Int Int))
(declare-fun |.x{199}| () Int)
(declare-fun |.x{204}| () Int)
(declare-fun |.x{205}| () Int)
(declare-fun |.x{200}| () Int)
(declare-fun |.x{188}| () (Array Int Int))
(define-fun .def_50 () Bool (! |.loc{4}| :next |.loc{6}|))
(define-fun .def_218 () Bool (not .def_50))
(define-fun .def_48 () Bool (! |.loc{3}| :next |.loc{5}|))
(define-fun .def_67 () Bool (not .def_48))
(define-fun .def_239 () Bool (and .def_67 .def_218))
(define-fun .def_24 () Int (! |.x{9}| :next |.x{269}|))
(define-fun .def_22 () Int (! |.x{28}| :next |.x{268}|))
(define-fun .def_234 () Bool (= .def_22 .def_24))
(define-fun .def_20 () (Array Int Int) (! |.x{7}| :next |.x{267}|))
(define-fun .def_18 () (Array Int Int) (! |.x{6}| :next |.x{266}|))
(define-fun .def_233 () Bool (= .def_18 .def_20))
(define-fun .def_235 () Bool (and .def_233 .def_234))
(define-fun .def_46 () Bool (! |.x{20}| :next |.x{240}|))
(define-fun .def_232 () Bool (not .def_46))
(define-fun .def_236 () Bool (and .def_232 .def_235))
(define-fun .def_12 () (Array Int Int) (! |.x{3}| :next |.x{263}|))
(define-fun .def_10 () (Array Int Int) (! |.x{22}| :next |.x{262}|))
(define-fun .def_231 () Bool (= .def_10 .def_12))
(define-fun .def_237 () Bool (and .def_231 .def_236))
(define-fun .def_16 () Int (! |.x{5}| :next |.x{265}|))
(define-fun .def_14 () Int (! |.x{24}| :next |.x{264}|))
(define-fun .def_230 () Bool (= .def_14 .def_16))
(define-fun .def_238 () Bool (and .def_230 .def_237))
(define-fun .def_240 () Bool (! (and .def_238 .def_239) :init true))
(define-fun .def_227 () Bool (= .def_24 |.x{269}|))
(define-fun .def_225 () Bool (= .def_20 |.x{267}|))
(define-fun .def_223 () Bool (= .def_16 |.x{265}|))
(define-fun .def_221 () Bool (= .def_12 |.x{263}|))
(define-fun .def_8 () Int (! |.x{1}| :next |.x{261}|))
(define-fun .def_219 () Bool (= .def_8 |.x{261}|))
(define-fun .def_220 () Bool (and .def_218 .def_219))
(define-fun .def_222 () Bool (and .def_220 .def_221))
(define-fun .def_224 () Bool (and .def_222 .def_223))
(define-fun .def_226 () Bool (and .def_224 .def_225))
(define-fun .def_228 () Bool (and .def_226 .def_227))
(define-fun .def_213 () Bool (not |.loc{5}|))
(define-fun .def_125 () Bool (= |.x{270}| |.x{272}|))
(define-fun .def_123 () Bool (= |.x{271}| |.x{277}|))
(define-fun .def_204 () Bool (and .def_123 .def_125))
(define-fun .def_205 () Bool (or .def_46 .def_204))
(define-fun .def_199 () Int (select |.x{79}| |.x{274}|))
(define-fun .def_200 () Bool (= .def_199 0))
(define-fun .def_196 () Bool (= |.x{279}| 0))
(define-fun .def_193 () Bool (= |.x{274}| 0))
(define-fun .def_194 () Bool (not .def_193))
(define-fun .def_191 () Bool (= |.x{270}| |.x{273}|))
(define-fun .def_188 () Bool (= |.x{278}| 0))
(define-fun .def_189 () Bool (not .def_188))
(define-fun .def_185 () Bool (= |.x{271}| |.x{278}|))
(define-fun .def_183 () Bool (= |.x{273}| 0))
(define-fun .def_172 () (Array Int Int) (store |.x{79}| |.x{274}| 1))
(define-fun .def_179 () (Array Int Int) (store .def_172 |.x{278}| 1))
(define-fun .def_180 () Bool (= |.x{262}| .def_179))
(define-fun .def_177 () Bool (= |.x{272}| |.x{279}|))
(define-fun .def_175 () Bool (= |.x{274}| |.x{277}|))
(define-fun .def_173 () Int (select .def_172 |.x{278}|))
(define-fun .def_174 () Bool (= .def_173 0))
(define-fun .def_176 () Bool (and .def_174 .def_175))
(define-fun .def_178 () Bool (and .def_176 .def_177))
(define-fun .def_181 () Bool (and .def_178 .def_180))
(define-fun .def_169 () (Array Int Int) (store .def_18 |.x{274}| 4))
(define-fun .def_170 () (Array Int Int) (store .def_169 |.x{278}| 4))
(define-fun .def_171 () Bool (= |.x{266}| .def_170))
(define-fun .def_182 () Bool (and .def_171 .def_181))
(define-fun .def_184 () Bool (and .def_182 .def_183))
(define-fun .def_186 () Bool (and .def_184 .def_185))
(define-fun .def_167 () Bool (<= |.x{261}| |.x{278}|))
(define-fun .def_168 () Bool (not .def_167))
(define-fun .def_187 () Bool (and .def_168 .def_186))
(define-fun .def_190 () Bool (and .def_187 .def_189))
(define-fun .def_192 () Bool (and .def_190 .def_191))
(define-fun .def_195 () Bool (and .def_192 .def_194))
(define-fun .def_197 () Bool (and .def_195 .def_196))
(define-fun .def_165 () Bool (<= |.x{261}| |.x{274}|))
(define-fun .def_166 () Bool (not .def_165))
(define-fun .def_198 () Bool (and .def_166 .def_197))
(define-fun .def_201 () Bool (and .def_198 .def_200))
(define-fun .def_202 () Bool (or .def_46 .def_201))
(define-fun .def_203 () Bool (and |.x{240}| .def_202))
(define-fun .def_206 () Bool (and .def_203 .def_205))
(define-fun .def_207 () Bool (and .def_67 .def_206))
(define-fun .def_62 () (Array Int Int) (store .def_10 0 0))
(define-fun .def_63 () Bool (= |.x{79}| .def_62))
(define-fun .def_59 () Bool (= |.x{264}| 0))
(define-fun .def_58 () Bool (= |.x{268}| 0))
(define-fun .def_60 () Bool (and .def_58 .def_59))
(define-fun .def_64 () Bool (and .def_60 .def_63))
(define-fun .def_65 () Bool (or .def_46 .def_64))
(define-fun .def_208 () Bool (and .def_65 .def_207))
(define-fun .def_209 () Bool (and .def_65 .def_208))
(define-fun .def_36 () Int (! |.x{15}| :next |.x{275}|))
(define-fun .def_53 () Bool (= .def_36 |.x{275}|))
(define-fun .def_210 () Bool (and .def_53 .def_209))
(define-fun .def_38 () Int (! |.x{16}| :next |.x{276}|))
(define-fun .def_162 () Bool (= |.x{275}| .def_38))
(define-fun .def_163 () Bool (or .def_46 .def_162))
(define-fun .def_159 () Bool (= .def_10 |.x{262}|))
(define-fun .def_157 () Bool (= .def_14 |.x{264}|))
(define-fun .def_155 () Bool (= .def_18 |.x{266}|))
(define-fun .def_153 () Bool (= .def_22 |.x{268}|))
(define-fun .def_26 () Int (! |.x{10}| :next |.x{270}|))
(define-fun .def_151 () Bool (= .def_26 |.x{270}|))
(define-fun .def_28 () Int (! |.x{11}| :next |.x{271}|))
(define-fun .def_149 () Bool (= .def_28 |.x{271}|))
(define-fun .def_30 () Int (! |.x{12}| :next |.x{272}|))
(define-fun .def_147 () Bool (= .def_30 |.x{272}|))
(define-fun .def_32 () Int (! |.x{13}| :next |.x{273}|))
(define-fun .def_145 () Bool (= .def_32 |.x{273}|))
(define-fun .def_34 () Int (! |.x{14}| :next |.x{274}|))
(define-fun .def_143 () Bool (= .def_34 |.x{274}|))
(define-fun .def_141 () Bool (= .def_38 |.x{276}|))
(define-fun .def_40 () Int (! |.x{17}| :next |.x{277}|))
(define-fun .def_139 () Bool (= .def_40 |.x{277}|))
(define-fun .def_42 () Int (! |.x{18}| :next |.x{278}|))
(define-fun .def_137 () Bool (= .def_42 |.x{278}|))
(define-fun .def_44 () Int (! |.x{19}| :next |.x{279}|))
(define-fun .def_135 () Bool (= .def_44 |.x{279}|))
(define-fun .def_117 () Bool (= .def_46 |.x{240}|))
(define-fun .def_136 () Bool (and .def_117 .def_135))
(define-fun .def_138 () Bool (and .def_136 .def_137))
(define-fun .def_140 () Bool (and .def_138 .def_139))
(define-fun .def_142 () Bool (and .def_140 .def_141))
(define-fun .def_144 () Bool (and .def_142 .def_143))
(define-fun .def_146 () Bool (and .def_144 .def_145))
(define-fun .def_148 () Bool (and .def_146 .def_147))
(define-fun .def_150 () Bool (and .def_148 .def_149))
(define-fun .def_152 () Bool (and .def_150 .def_151))
(define-fun .def_154 () Bool (and .def_152 .def_153))
(define-fun .def_156 () Bool (and .def_154 .def_155))
(define-fun .def_158 () Bool (and .def_156 .def_157))
(define-fun .def_160 () Bool (and .def_158 .def_159))
(define-fun .def_161 () Bool (and .def_48 .def_160))
(define-fun .def_164 () Bool (and .def_161 .def_163))
(define-fun .def_211 () Bool (or .def_164 .def_210))
(define-fun .def_212 () Bool (and |.loc{6}| .def_211))
(define-fun .def_214 () Bool (and .def_212 .def_213))
(define-fun .def_215 () Bool (and .def_213 .def_214))
(define-fun .def_126 () Bool (not .def_125))
(define-fun .def_124 () Bool (not .def_123))
(define-fun .def_127 () Bool (or .def_124 .def_126))
(define-fun .def_122 () Bool (= |.x{276}| 0))
(define-fun .def_128 () Bool (and .def_122 .def_127))
(define-fun .def_119 () (Array Int Int) (store |.x{188}| |.x{200}| 0))
(define-fun .def_120 () (Array Int Int) (store .def_119 |.x{204}| 0))
(define-fun .def_121 () Bool (= |.x{262}| .def_120))
(define-fun .def_129 () Bool (and .def_121 .def_128))
(define-fun .def_130 () Bool (or |.x{240}| .def_129))
(define-fun .def_111 () Int (select |.x{79}| |.x{200}|))
(define-fun .def_112 () Bool (= .def_111 0))
(define-fun .def_108 () Bool (<= |.x{261}| |.x{200}|))
(define-fun .def_109 () Bool (not .def_108))
(define-fun .def_106 () Bool (= |.x{205}| 0))
(define-fun .def_103 () Bool (= |.x{200}| 0))
(define-fun .def_104 () Bool (not .def_103))
(define-fun .def_99 () Bool (= |.x{204}| 0))
(define-fun .def_100 () Bool (not .def_99))
(define-fun .def_96 () Bool (<= |.x{261}| |.x{204}|))
(define-fun .def_97 () Bool (not .def_96))
(define-fun .def_93 () Bool (= |.x{199}| 0))
(define-fun .def_89 () (Array Int Int) (store .def_18 |.x{200}| 4))
(define-fun .def_90 () (Array Int Int) (store .def_89 |.x{204}| 4))
(define-fun .def_91 () Bool (= |.x{266}| .def_90))
(define-fun .def_79 () (Array Int Int) (store |.x{79}| |.x{200}| 1))
(define-fun .def_84 () (Array Int Int) (store .def_79 |.x{204}| 1))
(define-fun .def_86 () Bool (= .def_84 |.x{188}|))
(define-fun .def_80 () Int (select .def_79 |.x{204}|))
(define-fun .def_81 () Bool (= .def_80 0))
(define-fun .def_77 () Bool (= |.x{277}| |.x{200}|))
(define-fun .def_82 () Bool (and .def_77 .def_81))
(define-fun .def_75 () Bool (= |.x{272}| |.x{205}|))
(define-fun .def_83 () Bool (and .def_75 .def_82))
(define-fun .def_87 () Bool (and .def_83 .def_86))
(define-fun .def_92 () Bool (and .def_87 .def_91))
(define-fun .def_94 () Bool (and .def_92 .def_93))
(define-fun .def_73 () Bool (= |.x{271}| |.x{204}|))
(define-fun .def_95 () Bool (and .def_73 .def_94))
(define-fun .def_98 () Bool (and .def_95 .def_97))
(define-fun .def_101 () Bool (and .def_98 .def_100))
(define-fun .def_71 () Bool (= |.x{270}| |.x{199}|))
(define-fun .def_102 () Bool (and .def_71 .def_101))
(define-fun .def_105 () Bool (and .def_102 .def_104))
(define-fun .def_107 () Bool (and .def_105 .def_106))
(define-fun .def_110 () Bool (and .def_107 .def_109))
(define-fun .def_113 () Bool (and .def_110 .def_112))
(define-fun .def_114 () Bool (or |.x{240}| .def_113))
(define-fun .def_115 () Bool (and .def_53 .def_114))
(define-fun .def_52 () Bool (not |.loc{6}|))
(define-fun .def_116 () Bool (and .def_52 .def_115))
(define-fun .def_118 () Bool (and .def_116 .def_117))
(define-fun .def_131 () Bool (and .def_118 .def_130))
(define-fun .def_132 () Bool (and .def_65 .def_131))
(define-fun .def_133 () Bool (and .def_67 .def_132))
(define-fun .def_134 () Bool (and |.loc{5}| .def_133))
(define-fun .def_216 () Bool (or .def_134 .def_215))
(define-fun .def_54 () Bool (and .def_52 .def_53))
(define-fun .def_55 () Bool (and .def_46 .def_54))
(define-fun .def_56 () Bool (and |.x{240}| .def_55))
(define-fun .def_66 () Bool (and .def_56 .def_65))
(define-fun .def_68 () Bool (and .def_66 .def_67))
(define-fun .def_69 () Bool (and |.loc{5}| .def_68))
(define-fun .def_217 () Bool (or .def_69 .def_216))
(define-fun .def_229 () Bool (! (and .def_217 .def_228) :trans true))
(define-fun .def_241 () Bool (and .def_50 .def_67))
(define-fun .def_242 () Bool (and .def_46 .def_241))
(define-fun .def_243 () Bool (! (not .def_242) :invar-property 0))
(assert true)
